#######################
Slurm job id: 17497813_174
Running on machine: p47
Running cmd: /nfs/shared/static-builds/gurobi1003 SOFTMEMLIMIT=125 TimeLimit=300 seed=3 /nfs/models/miplib2010/k16x240.mps.bz2
#######################
Set parameter TimeLimit to value 300
Set parameter SoftMemLimit to value 125
Set parameter LogFile to value 1003-TimeLimit300-k16x240-3.log
Set parameter Seed to value 3
Using license file /opt/gurobi/gurobi.lic

Gurobi Optimizer version 10.0.3 build v10.0.3rc0 (linux64)
Copyright (c) 2023, Gurobi Optimization, LLC

Read MPS format model from file /nfs/models/miplib2010/k16x240.mps.bz2
Reading time = 0.00 seconds
k16x240: 256 rows, 480 columns, 960 nonzeros

CPU model: Intel(R) Xeon(R) E-2388G CPU @ 3.20GHz, instruction set [SSE2|AVX|AVX2|AVX512]
Thread count: 8 physical cores, 16 logical processors, using up to 16 threads

Optimize a model with 256 rows, 480 columns and 960 nonzeros
Model fingerprint: 0x4e80885f
Variable types: 240 continuous, 240 integer (240 binary)
Coefficient statistics:
  Matrix range     [1e+00, 1e+03]
  Objective range  [1e+00, 1e+03]
  Bounds range     [1e+00, 1e+03]
  RHS range        [4e+00, 4e+02]
Found heuristic solution: objective 20220.000000
Presolve time: 0.00s
Presolved: 256 rows, 480 columns, 960 nonzeros
Variable types: 240 continuous, 240 integer (240 binary)

Root relaxation: objective 2.769838e+03, 51 iterations, 0.00 seconds (0.00 work units)

    Nodes    |    Current Node    |     Objective Bounds      |     Work
 Expl Unexpl |  Obj  Depth IntInf | Incumbent    BestBd   Gap | It/Node Time

     0     0 2769.83800    0   14 20220.0000 2769.83800  86.3%     -    0s
H    0     0                    11359.000000 2769.83800  75.6%     -    0s
H    0     0                    11195.000000 2769.83800  75.3%     -    0s
H    0     0                    11074.000000 8084.69631  27.0%     -    0s
     0     0 8084.69631    0   26 11074.0000 8084.69631  27.0%     -    0s
H    0     0                    10916.000000 8084.69631  25.9%     -    0s
     0     0 8528.16906    0   24 10916.0000 8528.16906  21.9%     -    0s
H    0     0                    10870.000000 8528.16906  21.5%     -    0s
     0     0 8539.15185    0   34 10870.0000 8539.15185  21.4%     -    0s
     0     0 8548.03675    0   29 10870.0000 8548.03675  21.4%     -    0s
H    0     0                    10861.000000 8733.50363  19.6%     -    0s
     0     0 8733.50363    0   37 10861.0000 8733.50363  19.6%     -    0s
H    0     0                    10717.000000 8733.50363  18.5%     -    0s
     0     0 8793.93645    0   29 10717.0000 8793.93645  17.9%     -    0s
     0     0 8813.48501    0   28 10717.0000 8813.48501  17.8%     -    0s
     0     0 8817.87868    0   34 10717.0000 8817.87868  17.7%     -    0s
     0     0 8896.21564    0   45 10717.0000 8896.21564  17.0%     -    0s
     0     0 8922.45427    0   36 10717.0000 8922.45427  16.7%     -    0s
     0     0 8929.34107    0   37 10717.0000 8929.34107  16.7%     -    0s
     0     0 9052.85288    0   42 10717.0000 9052.85288  15.5%     -    0s
     0     0 9062.22555    0   34 10717.0000 9062.22555  15.4%     -    0s
     0     0 9070.52184    0   33 10717.0000 9070.52184  15.4%     -    0s
     0     0 9092.73518    0   38 10717.0000 9092.73518  15.2%     -    0s
     0     0 9092.73518    0   38 10717.0000 9092.73518  15.2%     -    0s
     0     2 9103.61487    0   38 10717.0000 9103.61487  15.1%     -    0s
H  131   128                    10681.000000 9201.97940  13.8%  35.2    0s
H  463   385                    10678.000000 9228.85036  13.6%  19.9    0s
H 1210   921                    10674.000000 9332.38905  12.6%  20.1    0s
 34437 12789 10374.9836   36   14 10674.0000 10054.7814  5.80%  25.7    5s
 73130 18737 10611.3699   29   15 10674.0000 10219.8734  4.25%  26.8   10s
 109836 18565 10651.7677   32   28 10674.0000 10340.3499  3.13%  27.0   15s
 150228  8883     cutoff   28      10674.0000 10485.6870  1.76%  26.8   20s

Cutting planes:
  Gomory: 2
  Lift-and-project: 18
  Cover: 77
  Implied bound: 40
  MIR: 159
  Flow cover: 326
  Flow path: 59
  Zero half: 16
  Network: 52

Explored 166528 nodes (4327651 simplex iterations) in 21.50 seconds (26.55 work units)
Thread count was 16 (of 16 available processors)

Solution count 10: 10674 10678 10681 ... 11359

Optimal solution found (tolerance 1.00e-04)
Best objective 1.067400000000e+04, best bound 1.067400000000e+04, gap 0.0000%
